# Objective value = 95602
x66 0
x67 1
x68 0
x69 0
x70 1
x71 0
x72 0
x73 1
x74 0
x75 1
x76 0
x77 1
x78 0
x79 1
x80 1
x81 0
x82 1
x83 0
x84 1
x85 1
x86 1
x87 0
x88 1
x89 0
x90 1
x91 1
x92 1
x93 1
x94 1
x95 0
x96 1
x97 0
x98 0
x99 0
x100 0
x101 0
x102 0
x103 1
x104 0
x105 1
x106 1
x107 1
x108 1
x109 1
x110 0
x111 0
x112 1
x113 0
x114 1
x115 1
x116 1
x117 1
x118 1
x119 0
x120 1
x121 1
x122 0
x123 1
x124 0
x125 0
x126 0
x127 0
x128 0
x129 1
x130 0
x131 0
x132 0
x133 1
x134 0
x135 1
x136 1
x137 1
x138 1
x139 1
x140 0
x141 1
x142 1
x143 0
x144 1
x145 0
x146 1
x147 0
x148 0
x149 0
x150 0
x151 0
x152 1
x153 0
x154 0
x155 1
x156 0
x157 0
x158 1
x159 0
x160 1
x161 1
x162 1
x163 1
x164 1
x165 0
x166 1
x167 1
x168 0
x169 1
x170 0
x171 0
x172 1
x173 0
x174 1
x175 1
x176 1
x177 1
x178 1
x179 0
x180 1
x181 1
x182 0
x183 1
x184 0
x185 1
x186 0
x187 1
x188 0
x189 1
x190 1
x191 1
x192 1
x193 1
x194 0
x195 1
x196 1
x197 0
x198 1
x199 0
x200 1
x201 1
x202 1
x203 0
x204 1
x205 0
x206 0
x207 0
x208 1
x209 0
x210 1
x211 0
x212 1
x213 1
x214 1
x215 1
x216 0
x217 0
x218 1
x219 0
x220 1
x221 1
x222 0
x223 1
x224 0
x225 1
x226 0
x227 1
x228 0
x229 1
x230 1
x231 1
x232 1
x233 0
x234 1
x235 1
x236 0
x237 1
x238 1
x239 1
x240 0
x241 1
x242 0
x243 0
x244 1
x245 1
x246 1
x247 0
x248 1
x249 1
x250 1
x251 0
x252 1
x253 1
x254 0
x255 1
x256 1
x257 1
x258 1
x259 1
x260 0
x261 0
x262 0
x263 1
x264 1
x265 0
x266 1
x267 0
x268 0
x269 0
x270 0
x271 0
x272 0
x273 1
x274 1
x275 1
x276 0
x277 1
x278 1
x279 0
x280 1
x281 1
x282 1
x283 1
x284 1
x285 0
x286 0
x287 1
x288 1
x289 1
x290 1
x291 0
x292 1
x293 0
x294 1
x295 1
x296 1
x297 1
x298 1
x299 0
x300 1
x301 0
x302 0
x303 1
x304 1
x305 1
x306 0
x307 1
x308 0
x309 1
x310 1
x311 1
x312 1
x313 1
x314 0
x315 1
x316 1
x317 0
x318 1
x319 1
x320 1
x321 1
x322 0
x323 1
x324 0
x325 1
x326 1
x327 1
x328 1
x329 1
x330 0
x331 1
x332 1
x333 1
x334 1
x335 0
x336 1
x337 0
x338 0
x339 1
x340 0
x341 1
x342 0
x343 0
x344 0
x345 0
x346 0
x347 1
x348 0
x349 0
x350 0
x351 0
x352 0
x353 1
x354 1
x355 0
x356 1
x357 1
x358 1
x359 0
x360 1
x361 1
x362 1
x363 1
x364 1
x365 0
x366 1
x367 1
x368 1
x369 1
x370 0
x371 1
x372 1
x373 0
x374 1
x375 0
x376 0
x377 0
x378 1
x379 0
x380 0
x381 0
x382 0
x383 0
x384 1
x385 0
x386 0
x387 0
x388 0
x389 1
x390 0
x391 0
x392 1
x393 1
x394 0
x395 1
x396 1
x397 1
x398 0
x399 1
x400 1
x401 1
x402 1
x403 1
x404 0
x405 1
x406 1
x407 1
x408 1
x409 0
x410 1
x411 0
x412 0
x413 1
x414 0
x415 0
x416 1
x417 1
x418 1
x419 0
x420 1
x421 1
x422 1
x423 1
x424 1
x425 0
x426 1
x427 1
x428 1
x429 1
x430 0
x431 1
x432 0
x433 1
x434 0
x435 1
x436 0
x437 1
x438 1
x439 1
x440 0
x441 1
x442 1
x443 1
x444 1
x445 0
x446 1
x447 0
x448 1
x449 1
x450 1
x451 0
x452 1
x453 1
x454 1
x455 1
x456 1
x457 1
x458 0
x459 1
x460 0
x461 0
x462 0
x463 1
x464 0
x465 0
x466 0
x467 1
x468 0
x469 0
x470 0
x471 1
x472 0
x473 1
x474 1
x475 0
x476 0
x477 1
x478 1
x479 1
x480 1
x481 1
x482 1
x483 0
x484 0
x485 1
x486 1
x487 1
x488 1
x489 0
x490 0
x491 1
x492 1
x493 0
x494 1
x495 1
x496 1
x497 0
x498 1
x499 1
x500 1
x501 0
x502 0
x503 0
x504 1
x505 0
x506 0
x507 0
x508 1
x509 0
x510 0
x511 0
x512 1
x513 0
x514 0
x515 0
x516 1
x517 1
x518 1
x519 1
x520 0
x521 1
x522 1
x523 1
x524 0
x525 1
x526 1
x527 1
x528 0
x529 1
x530 1
x531 0
x532 0
x533 1
x534 1
x535 1
x536 1
x537 0
x538 1
x539 1
x540 1
x541 0
x542 1
x543 1
x544 1
x545 0
x546 1
x547 1
x548 0
x549 1
x550 1
x551 0
x552 0
x553 1
x554 0
x555 1
x556 0
x557 0
x558 0
x559 1
x560 0
x561 0
x562 0
x563 1
x564 0
x565 0
x566 1
x567 0
x568 0
x569 0
x570 1
x571 1
x572 0
x573 1
x574 1
x575 1
x576 1
x577 1
x578 0
x579 0
x580 1
x581 1
x582 0
x583 1
x584 1
x585 0
x586 1
x587 1
x588 0
x589 0
x590 1
x591 1
x592 0
x593 1
x594 1
x595 1
x596 1
x597 1
x598 0
x599 1
x600 1
x601 1
x602 0
x603 1
x604 1
x605 0
x606 1
x607 1
x608 0
x609 1
x610 0
x611 1
x612 1
x613 0
x614 1
x615 1
x616 1
x617 1
x618 1
x619 0
x620 1
x621 1
x622 1
x623 0
x624 1
x625 1
x626 0
x627 1
x628 1
x629 0
x630 1
x631 1
x632 0
x633 1
x634 0
x635 1
x636 1
x637 1
x638 1
x639 1
x640 0
x641 1
x642 1
x643 1
x644 1
x645 0
x646 1
x647 1
x648 0
x649 1
x650 1
x651 0
x652 1
x653 1
x654 1
x655 0
x656 1
x657 0
x658 1
x659 1
x660 1
x661 1
x662 1
x663 0
x664 1
x665 1
x666 1
x667 1
x668 0
x669 1
x670 1
x671 0
x672 1
x673 1
x674 0
x675 1
x676 1
x677 1
x678 1
x679 0
x680 0
x681 0
x682 1
x683 1
x684 1
x685 1
x686 1
x687 0
x688 1
x689 1
x690 1
x691 1
x692 0
x693 1
x694 1
x695 0
x696 1
x697 1
x698 0
x699 1
x700 1
x701 1
x702 1
x703 1
x704 1
x705 0
x706 1
x707 0
x708 0
x709 0
x710 1
x711 0
x712 1
x713 0
x714 0
x715 0
x716 0
x717 1
x718 0
x719 0
x720 1
x721 0
x722 0
x723 1
x724 0
x725 0
x726 0
x727 0
x728 0
x729 0
x730 0
x731 1
x732 0
x733 1
x734 1
x735 1
x736 0
x737 1
x738 1
x739 1
x740 1
x741 1
x742 1
x743 0
x744 1
x745 0
x746 1
x747 0
x748 1
x749 0
x750 1
x751 1
x752 1
x753 0
x754 1
x755 1
x756 1
x757 1
x758 1
x759 1
x760 0
x761 1
x762 1
x763 1
x764 1
x765 0
x766 1
x767 0
x768 1
x769 1
x770 1
x771 0
x772 1
x773 1
x774 1
x775 0
x776 1
x777 1
x778 0
x779 1
x780 1
x781 1
x782 1
x783 1
x784 1
x785 0
x786 1
x787 0
x788 0
x789 1
x790 1
x791 0
x792 0
x793 0
x794 0
x795 0
x796 0
x797 1
x798 0
x799 0
x800 1
x801 0
x802 0
x803 0
x804 1
x805 0
x806 0
x807 0
x808 0
x809 1
x810 1
x811 0
x812 0
x813 1
x814 0
x815 0
x816 1
x817 0
x818 0
x819 1
x820 0
x821 0
x822 0
x823 0
x824 1
x825 0
x826 0
x827 1
x828 1
x829 1
x830 0
x831 1
x832 1
x833 1
x834 0
x835 1
x836 1
x837 0
x838 1
x839 1
x840 1
x841 1
x842 1
x843 1
x844 1
x845 0
x846 0
x847 0
x848 1
x849 1
x850 1
x851 1
x852 0
x853 1
x854 1
x855 1
x856 0
x857 1
x858 1
x859 0
x860 1
x861 1
x862 1
x863 1
x864 1
x865 1
x866 1
x867 0
x868 0
x869 1
x870 0
x871 1
x872 1
x873 1
x874 1
x875 0
x876 1
x877 1
x878 1
x879 0
x880 1
x881 1
x882 0
x883 1
x884 1
x885 1
x886 0
x887 1
x888 1
x889 1
x890 0
x891 0
x892 1
x893 1
x894 0
x895 1
x896 1
x897 0
x898 1
x899 0
x900 1
x901 1
x902 1
x903 0
x904 1
x905 1
x906 1
x907 0
x908 1
x909 1
x910 1
x911 1
x912 1
x913 1
x914 0
x915 0
x916 1
x917 1
x918 1
x919 1
x920 0
x921 0
x922 1
x923 0
x924 0
x925 0
x926 0
x927 0
x928 1
x929 1
x930 0
x931 1
x932 1
x933 0
x934 0
x935 0
x936 0
x937 0
x938 0
x939 1
x940 1
x941 0
x942 0
x943 0
x944 0
x945 0
x946 1
x947 1
x948 0
x949 1
x950 1
x951 1
x952 1
x953 1
x954 0
x955 1
x956 0
x957 1
x958 0
x959 1
x960 1
x961 1
x962 1
x963 1
x964 1
x965 0
x966 0
x967 1
x968 1
x969 1
x970 1
x971 0
x972 0
x973 1
x974 1
x975 0
x976 1
x977 1
x978 1
x979 1
x980 1
x981 0
x982 1
x983 1
x984 1
x985 0
x986 1
x987 1
x988 1
x989 1
x990 1
x991 1
x992 0
x993 0
x994 1
x995 1
x996 1
x997 1
x998 0
x999 1
x1000 0
x1001 1
x1002 0
x1003 1
x1004 1
x1005 1
x1006 1
x1007 1
x1008 0
x1009 1
x1010 1
x1011 1
x1012 1
x1013 1
x1014 1
x1015 1
x1016 0
x1017 1
x1018 1
x1019 1
x1020 0
x1021 0
x1022 1
x1023 1
x1024 1
x1025 1
x1026 0
x1027 1
x1028 1
x1029 0
x1030 1
x1031 0
x1032 1
x1033 1
x1034 1
x1035 1
x1036 1
x1037 0
x1038 1
x1039 1
x1040 1
x1041 0
x1042 1
x1043 1
x1044 1
x1045 0
x1046 1
x1047 1
x1048 1
x1049 0
x1050 0
x1051 1
x1052 1
x1053 1
x1054 1
x1055 0
x1056 1
x1057 1
x1058 1
x1059 1
x1060 1
x1061 1
x1062 0
x1063 0
x1064 0
x1065 0
x1066 0
x1067 1
x1068 0
x1069 0
x1070 1
x1071 0
x1072 0
x1073 0
x1074 0
x1075 1
x1076 0
x1077 0
x1078 0
x1079 1
x1080 1
x1081 0
x1082 0
x1083 0
x1084 0
x1085 1
x1086 0
x1087 0
x1088 0
x1089 0
x1090 0
x1091 1
x1092 0
x1093 1
x1094 1
x1095 1
x1096 0
x1097 1
x1098 0
x1099 1
x1100 1
x1101 1
x1102 1
x1103 1
x1104 1
x1105 1
x1106 0
x1107 1
x1108 1
x1109 1
x1110 0
x1111 0
x1112 1
x1113 1
x1114 1
x1115 1
x1116 0
x1117 1
x1118 1
x1119 1
x1120 1
x1121 0
x1 1
x2 0
x3 1
x4 0
x5 0
x6 0
x7 0
x8 0
x9 1
x10 0
x11 0
x12 1
x13 0
x14 1
x15 0
x16 0
x17 0
x18 1
x19 0
x20 0
x21 0
x22 0
x23 0
x24 1
x25 0
x26 0
x27 0
x28 0
x29 1
x30 0
x31 1
x32 0
x33 0
x34 0
x35 0
x36 1
x37 0
x38 0
x39 1
x40 0
x41 0
x42 1
x43 0
x44 0
x45 0
x46 0
x47 0
x48 0
x49 1
x50 0
x51 0
x52 0
x53 1
x54 1
x55 0
x56 0
x57 0
x58 0
x59 1
x60 0
x61 0
x62 0
x63 0
x64 1
x65 0
